* Signature: 0x3fd1861e4d2f9771
NAME lp_typeD_047
OBJSENSE MAX
ROWS
 N  OBJ
 L  c0      
 L  c1      
 L  c2      
 G  c3      
 G  c4      
 G  c5      
 L  c_key_upper
 G  c_key_lower
 G  _chain_constr_1
 G  _chain_constr_2
 G  _chain_constr_3
 G  _chain_constr_4
 G  _chain_cycle
COLUMNS
    x0        OBJ       1.3663090346686251e+00
    x0        c0        1.2725445852019370e+00
    x0        c1        1.4049828015437857e+00
    x0        c2        1.5107199487691831e+00
    x0        c3        1.4707848851846350e+00
    x0        c4        1.5792870868067481e+00
    x0        c5        5.4772425726863117e-01
    x0        c_key_upper  1.6310151944964926e+00
    x0        c_key_lower  1.6310151944964926e+00
    x1        OBJ       9.7738464003702186e-01
    x1        c0        1.2918719510491044e+00
    x1        c1        1.5456391133917671e+00
    x1        c2        1.1625109448194537e+00
    x1        c3        1.7299352219264932e+00
    x1        c4        0.871359308888014
    x1        c5        1.2268838099711812e+00
    x1        c_key_upper  1.0247300620112556e+00
    x1        c_key_lower  1.0247300620112556e+00
    x2        OBJ       1.0275089231083752e+00
    x2        c0        6.5042039567314980e-01
    x2        c1        8.2594053256493694e-01
    x2        c2        1.5425699316177508e+00
    x2        c3        1.0243508597826612e+00
    x2        c4        1.6148198337475630e+00
    x2        c5        1.3103111115193444e+00
    x2        c_key_upper  1.6644586659220697e+00
    x2        c_key_lower  1.6644586659220697e+00
    x3        OBJ       1.1212087814000804e+00
    x3        c0        6.8527814403055287e-01
    x3        c1        1.1940131758912460e+00
    x3        c2        1.3440889219828640e+00
    x3        c3        9.1218215550338533e-01
    x3        c4        1.1576401997044397e+00
    x3        c5        1.4636293994594984e+00
    x3        c_key_upper  1.0179592922825009e+00
    x3        c_key_lower  1.0179592922825009e+00
    x4        OBJ       1.4563645349951218e+00
    x4        c0        1.1314438832227209e+00
    x4        c1        8.5094896667050857e-01
    x4        c2        1.5777402254957238e+00
    x4        c3        6.8667716689207670e-01
    x4        c4        1.1055143494856587e+00
    x4        c5        1.8791530313979741e+00
    x4        c_key_upper  1.6822105705522059e+00
    x4        c_key_lower  1.6822105705522059e+00
    _chain_var_0  _chain_constr_1  -1
    _chain_var_0  _chain_cycle  1
    _chain_var_1  _chain_constr_1  1
    _chain_var_1  _chain_constr_2  -1
    _chain_var_2  _chain_constr_2  1
    _chain_var_2  _chain_constr_3  -1
    _chain_var_3  _chain_constr_3  1
    _chain_var_3  _chain_constr_4  -1
    _chain_var_4  _chain_constr_4  1
    _chain_var_4  _chain_cycle  -1
RHS
    RHS1      c0        2.1881885065703905e+01
    RHS1      c1        33.6744833880175
    RHS1      c2        3.7303558070604211e+01
    RHS1      c3        5.9883517477318984e+00
    RHS1      c4        9.5038897537257743e+00
    RHS1      c5        1.0872184810758039e+01
    RHS1      c_key_upper  3.5101868926322624e+01
    RHS1      c_key_lower  1.7550934463161312e+01
    RHS1      _chain_constr_1  10
    RHS1      _chain_constr_2  10
    RHS1      _chain_constr_3  10
    RHS1      _chain_constr_4  10
    RHS1      _chain_cycle  10
BOUNDS
 UP BND1      x0        10
 UP BND1      x1        10
 UP BND1      x2        10
 UP BND1      x3        10
 UP BND1      x4        10
 UP BND1      _chain_var_0  100
 UP BND1      _chain_var_1  100
 UP BND1      _chain_var_2  100
 UP BND1      _chain_var_3  100
 UP BND1      _chain_var_4  100
ENDATA
